
Gurobi 13.0.2 (win64) logging started Thu Jul 23 14:28:56 2026

Set parameter LogFile to value "E:\codes\ExactEBRP\results\gf_gurobi_performance_recovery_round29\runs\stage1__tight_T_seed3101__c3_replica__300s\external\native_logs\R.0.0.0.0.1.0.1.0.1.1_terminal_mip.gurobi.log"
Gurobi Optimizer version 13.0.2 build v13.0.2rc1 (win64 - Windows 10.0 (19045.2))

CPU model: 12th Gen Intel(R) Core(TM) i7-12700KF, instruction set [SSE2|AVX|AVX2]
Thread count: 12 physical cores, 20 logical processors, using up to 1 threads

Non-default parameters:
TimeLimit  256.123462
MIPGap  0
MIPGapAbs  0
LogToConsole  0
Threads  1

Optimize a model with 11939 rows, 3384 columns and 67420 nonzeros (Min)
Model fingerprint: 0xdb2fea20
Model has 21 linear objective coefficients
Variable types: 1689 continuous, 1695 integer (1495 binary)
Coefficient statistics:
  Matrix range     [5e-03, 2e+04]
  Objective range  [7e-03, 1e+00]
  Bounds range     [5e-03, 3e+02]
  RHS range        [5e-03, 5e+04]

Presolve removed 5727 rows and 944 columns
Presolve time: 0.35s
Presolved: 6212 rows, 2440 columns, 50297 nonzeros
Variable types: 1202 continuous, 1238 integer (1135 binary)

Root relaxation: infeasible, 514 iterations, 0.03 seconds (0.06 work units)

    Nodes    |    Current Node    |     Objective Bounds      |     Work
 Expl Unexpl |  Obj  Depth IntInf | Incumbent    BestBd   Gap | It/Node Time

     0     0 infeasible    0               - infeasible      -     -    0s

Explored 1 nodes (514 simplex iterations) in 0.42 seconds (0.64 work units)
Thread count was 1 (of 20 available processors)

Solution count 0

Model is infeasible
Best objective -, best bound -, gap -

User-callback calls 1021, time in user-callback 0.00 sec
